qbf_easy_train/easy_4755_SAT.qdimacs
p cnf 31 81
a 8 11 27 0
e 1 2 3 4 5 6 7 9 10 12 13 14 15 16 17 18 19 20 21 22 23 24 25 26 28 29 30 31 0
5 -3 0
5 -4 0
3 4 -5 0
6 2 0
6 5 0
-2 -5 -6 0
7 -1 0
7 -6 0
1 6 -7 0
8 -9 -10 0
-8 9 -10 0
8 9 10 0
-8 -9 10 0
5 -11 -12 0
-5 11 -12 0
5 11 12 0
-5 -11 12 0
-13 -4 0
-13 -4 0
4 13 0
14 13 0
14 -3 0
-13 3 -14 0
5 -14 -15 0
-5 14 -15 0
5 14 15 0
-5 -14 15 0
16 -12 0
16 15 0
12 -15 -16 0
10 -16 -17 0
-10 16 -17 0
10 16 17 0
-10 -16 17 0
-18 7 0
-18 17 0
-7 -17 18 0
19 -2 0
19 8 0
2 -8 -19 0
-20 18 0
-20 -19 0
-18 19 20 0
22 4 0
22 21 0
-4 -21 -22 0
-23 -20 0
-23 22 0
20 -22 23 0
-24 3 0
-24 -3 0
25 -11 0
25 -5 0
11 5 -25 0
-21 25 -26 0
21 -25 -26 0
-21 -25 26 0
21 25 26 0
27 -21 0
27 -26 0
21 26 -27 0
-28 -24 0
-28 27 0
24 -27 28 0
-29 4 0
-29 -2 0
-4 2 29 0
30 28 0
30 29 0
-28 -29 -30 0
31 -23 0
31 -30 0
23 30 -31 0
-9 -3 10 28 11 18 0
-19 -23 14 -1 -5 17 0
31 3 11 -10 1 0
-29 16 10 -12 -25 0
-8 -9 -5 -14 -6 0
-1 -17 -22 -25 -14 15 0
-13 9 26 -18 -31 20 -25 0
31 0
