sat_easy_train/easy_4755_SAT.dimacs
p cnf 90 290
6 4 0
6 -5 0
-4 5 -6 0
-7 -3 0
-7 6 0
3 -6 7 0
2 7 -8 0
-2 -7 -8 0
2 -7 8 0
-2 7 8 0
-9 -1 0
-9 -8 0
1 8 9 0
12 -10 0
12 11 0
10 -11 -12 0
-13 -12 0
-13 1 0
12 -1 13 0
1 14 -15 0
-1 -14 -15 0
1 -14 15 0
-1 14 15 0
-7 15 -16 0
7 -15 -16 0
-7 -15 16 0
7 15 16 0
13 -16 -17 0
-13 16 -17 0
13 16 17 0
-13 -16 17 0
-5 6 -18 0
5 -6 -18 0
-5 -6 18 0
5 6 18 0
17 -18 -19 0
-17 18 -19 0
17 18 19 0
-17 -18 19 0
20 3 0
20 -18 0
-3 18 -20 0
-21 -19 0
-21 20 0
19 -20 21 0
-1 22 -23 0
1 -22 -23 0
-1 -22 23 0
1 22 23 0
-25 23 0
-25 24 0
-23 -24 25 0
-26 25 0
-26 20 0
-25 -20 26 0
-21 26 -27 0
21 -26 -27 0
-21 -26 27 0
21 26 27 0
28 -9 0
28 -27 0
9 27 -28 0
29 -11 0
29 -25 0
11 25 -29 0
-30 6 0
-30 -29 0
-6 29 30 0
31 -5 0
31 -11 0
5 11 -31 0
32 -19 0
32 -31 0
19 31 -32 0
-30 32 -33 0
30 -32 -33 0
-30 -32 33 0
30 32 33 0
2 -34 -35 0
-2 34 -35 0
2 34 35 0
-2 -34 35 0
-33 35 -36 0
33 -35 -36 0
-33 -35 36 0
33 35 36 0
37 24 -38 0
-37 -24 -38 0
37 -24 38 0
-37 24 38 0
39 -38 0
39 -34 0
38 34 -39 0
40 15 0
40 -39 0
-15 39 -40 0
-42 4 0
-42 5 0
-4 -5 42 0
41 -42 -43 0
-41 42 -43 0
41 42 43 0
-41 -42 43 0
44 -11 0
44 -43 0
11 43 -44 0
44 17 -45 0
-44 -17 -45 0
44 -17 45 0
-44 17 45 0
40 45 -46 0
-40 -45 -46 0
40 -45 46 0
-40 45 46 0
47 37 0
47 -17 0
-37 17 -47 0
18 37 -48 0
-18 -37 -48 0
18 -37 48 0
-18 37 48 0
-49 39 0
-49 -48 0
-39 48 49 0
-50 -43 0
-50 49 0
43 -49 50 0
39 -15 -51 0
-39 15 -51 0
39 15 51 0
-39 -15 51 0
-50 51 -52 0
50 -51 -52 0
-50 -51 52 0
50 51 52 0
47 52 -53 0
-47 -52 -53 0
47 -52 53 0
-47 52 53 0
54 5 0
54 -5 0
-53 54 -55 0
53 -54 -55 0
-53 -54 55 0
53 54 55 0
-56 -46 0
-56 55 0
46 -55 56 0
-57 -36 0
-57 56 0
36 -56 57 0
58 -39 0
58 -18 0
39 18 -58 0
-25 37 -59 0
25 -37 -59 0
-25 -37 59 0
25 37 59 0
60 -23 0
60 -59 0
23 59 -60 0
61 58 0
61 60 0
-58 -60 -61 0
62 -57 0
62 -61 0
57 61 -62 0
63 28 0
63 62 0
-28 -62 -63 0
-64 4 -65 0
64 -4 -65 0
-64 -4 65 0
64 4 65 0
-66 31 0
-66 -65 0
-31 65 66 0
66 -16 -67 0
-66 16 -67 0
66 16 67 0
-66 -16 67 0
3 18 -68 0
-3 -18 -68 0
3 -18 68 0
-3 18 68 0
69 -67 0
69 -68 0
67 68 -69 0
70 15 0
70 -13 0
-15 13 -70 0
-71 -43 0
-71 -39 0
43 39 71 0
72 70 0
72 -71 0
-70 71 -72 0
-73 6 0
-73 38 0
-6 -38 73 0
-72 73 -74 0
72 -73 -74 0
-72 -73 74 0
72 73 74 0
75 23 0
75 11 0
-23 -11 -75 0
-48 75 -76 0
48 -75 -76 0
-48 -75 76 0
48 75 76 0
23 1 -77 0
-23 -1 -77 0
23 -1 77 0
-23 1 77 0
78 59 0
78 -77 0
-59 77 -78 0
-76 -78 -79 0
76 78 -79 0
-76 78 79 0
76 -78 79 0
74 79 -80 0
-74 -79 -80 0
74 -79 80 0
-74 79 80 0
-81 -25 0
-81 -16 0
25 16 81 0
82 80 0
82 81 0
-80 -81 -82 0
-69 82 -83 0
69 -82 -83 0
-69 -82 83 0
69 82 83 0
85 11 0
85 -84 0
-11 84 -85 0
87 1 0
87 86 0
-1 -86 -87 0
88 85 0
88 87 0
-85 -87 -88 0
89 -83 0
89 -88 0
83 88 -89 0
-90 63 0
-90 -89 0
-63 89 90 0
-27 62 10 16 90 0
17 75 34 43 -90 52 0
-33 70 13 -17 -68 0
73 -85 -9 40 0
-42 -48 -24 47 0
-57 -87 0
56 14 5 0
8 72 -69 0
16 61 0
-35 -86 -38 -21 0
-34 -35 0
-52 -53 -65 -64 0
-77 72 -43 19 0
-30 -36 0
51 -46 66 -5 0
65 23 59 0
-88 -70 -63 32 56 0
-74 12 -51 83 32 0
-32 56 36 0
-66 -52 -7 -23 -89 0
86 18 56 -17 27 -12 0
55 73 -69 29 6 0
82 -25 0
42 -11 73 0
67 84 -76 -74 32 0
5 -35 -49 -2 -81 -78 0
-62 -50 -6 -81 0
17 10 73 -50 21 0
26 -49 0
-41 -38 78 16 0
67 -37 36 9 0
63 -60 -49 0
-88 -71 52 -29 -60 0
55 -61 50 59 0
-66 -18 9 36 58 -12 0
55 -24 12 -80 30 0
25 53 36 22 0
-33 -28 11 12 -68 0
90 0
